000111010001000111101011101011110011101100001110011001011001101010000001101010000111011101100000101010011101001010101010101010001100100101010100110000101111001011011010010100010101001001001100010110111001000000101101000100010111011011001010100111000111000110111001000011001010110100110111011110100101001110101101000100011101011100011011010011011101111011011110100100110110111111111000001001100110100101110001001001011011000111000110110000101000100111010100010011100101010010000010110101110111011010001111000100011010011101101101100100000111111111110100011110110001100000101101011011000110000110101111001011000100000010110110010001010001110111000000110010000111000011100110010011001110111010000110100000000000011010011101001011101101000011111000100011111000000101001010